inputs/198.in
12
0 12 54 26 16 81 11 1 48 11 9 31 
12 0 2 33 24 79 91 2 77 18 2 2 
54 2 0 87 52 76 63 13 46 94 3 98 
26 33 87 0 48 53 49 26 0 90 39 0 
16 24 52 48 0 60 29 45 84 81 7 86 
81 79 76 53 60 0 73 37 18 42 84 84 
11 91 63 49 29 73 0 48 94 7 66 45 
1 2 13 26 45 37 48 0 56 83 13 28 
48 77 46 0 84 18 94 56 0 12 59 93 
11 18 94 90 81 42 7 83 12 0 18 71 
9 2 3 39 7 84 66 13 59 18 0 79 
31 2 98 0 86 84 45 28 93 71 79 0 
BRBBRRRBRRBB
