output/198.out
7 10 1 5 11 3 8 2 12 4 9 6 
